c cnf generated file for haplotype inference
p cnf 148 510
-46 -76 0
-46 -82 0
-51 -77 0
-51 -83 0
-56 -78 0
-56 -84 0
-61 -79 0
-61 -85 0
-66 -80 0
-66 -86 0
-71 -81 0
-71 -87 0
5 6 0
-5 -6 0
47 -5 -76 0
-47 5 -76 0
47 6 82 0
-47 6 -82 0
52 -5 -77 0
-52 5 -77 0
52 6 83 0
-52 6 -83 0
57 -5 -78 0
-57 5 -78 0
57 6 84 0
-57 6 -84 0
62 -5 -79 0
-62 5 -79 0
62 6 85 0
-62 6 -85 0
67 -5 -80 0
-67 5 -80 0
67 6 86 0
-67 6 -86 0
72 -5 -81 0
-72 5 -81 0
72 6 87 0
-72 6 -87 0
76 -112 0
-76 112 0
-77 -113 0
77 113 -114 0
114 -77 0
114 -113 0
-78 -114 0
78 114 -115 0
115 -78 0
115 -114 0
-79 -115 0
79 115 -116 0
116 -79 0
116 -115 0
-80 -116 0
80 116 -117 0
117 -80 0
117 -116 0
117 0
82 -118 0
-82 118 0
-83 -119 0
-84 -120 0
-85 -121 0
-86 -122 0
82 118 -119 0
119 -82 0
119 -118 0
83 119 -120 0
120 -83 0
120 -119 0
84 120 -121 0
121 -84 0
121 -120 0
85 121 -122 0
122 -85 0
122 -121 0
86 122 -123 0
123 -86 0
123 -122 0
123 0
48 -76 0
48 -82 0
53 -77 0
53 -83 0
58 -78 0
58 -84 0
63 -79 0
63 -85 0
68 -80 0
68 -86 0
73 -81 0
73 -87 0
11 12 0
-11 -12 0
49 -11 -76 0
-49 11 -76 0
49 12 82 0
-49 12 -82 0
54 -11 -77 0
-54 11 -77 0
54 12 83 0
-54 12 -83 0
59 -11 -78 0
-59 11 -78 0
59 12 84 0
-59 12 -84 0
64 -11 -79 0
-64 11 -79 0
64 12 85 0
-64 12 -85 0
69 -11 -80 0
-69 11 -80 0
69 12 86 0
-69 12 -86 0
74 -11 -81 0
-74 11 -81 0
74 12 87 0
-74 12 -87 0
76 -112 0
-76 112 0
-77 -113 0
77 113 -114 0
114 -77 0
114 -113 0
-78 -114 0
78 114 -115 0
115 -78 0
115 -114 0
-79 -115 0
79 115 -116 0
116 -79 0
116 -115 0
-80 -116 0
80 116 -117 0
117 -80 0
117 -116 0
117 0
82 -118 0
-82 118 0
-83 -119 0
-84 -120 0
-85 -121 0
-86 -122 0
82 118 -119 0
119 -82 0
119 -118 0
83 119 -120 0
120 -83 0
120 -119 0
84 120 -121 0
121 -84 0
121 -120 0
85 121 -122 0
122 -85 0
122 -121 0
86 122 -123 0
123 -86 0
123 -122 0
123 0
-50 -76 0
-50 -82 0
-55 -77 0
-55 -83 0
-60 -78 0
-60 -84 0
-65 -79 0
-65 -85 0
-70 -80 0
-70 -86 0
-75 -81 0
-75 -87 0
17 18 0
-17 -18 0
46 -17 -88 0
-46 17 -88 0
46 18 94 0
-46 18 -94 0
51 -17 -89 0
-51 17 -89 0
51 18 95 0
-51 18 -95 0
56 -17 -90 0
-56 17 -90 0
56 18 96 0
-56 18 -96 0
61 -17 -91 0
-61 17 -91 0
61 18 97 0
-61 18 -97 0
66 -17 -92 0
-66 17 -92 0
66 18 98 0
-66 18 -98 0
71 -17 -93 0
-71 17 -93 0
71 18 99 0
-71 18 -99 0
88 -124 0
-88 124 0
-89 -125 0
89 125 -126 0
126 -89 0
126 -125 0
-90 -126 0
90 126 -127 0
127 -90 0
127 -126 0
-91 -127 0
91 127 -128 0
128 -91 0
128 -127 0
-92 -128 0
92 128 -129 0
129 -92 0
129 -128 0
129 0
94 -130 0
-94 130 0
-95 -131 0
-96 -132 0
-97 -133 0
-98 -134 0
94 130 -131 0
131 -94 0
131 -130 0
95 131 -132 0
132 -95 0
132 -131 0
96 132 -133 0
133 -96 0
133 -132 0
97 133 -134 0
134 -97 0
134 -133 0
98 134 -135 0
135 -98 0
135 -134 0
135 0
20 21 0
-20 -21 0
47 -20 -88 0
-47 20 -88 0
47 21 94 0
-47 21 -94 0
52 -20 -89 0
-52 20 -89 0
52 21 95 0
-52 21 -95 0
57 -20 -90 0
-57 20 -90 0
57 21 96 0
-57 21 -96 0
62 -20 -91 0
-62 20 -91 0
62 21 97 0
-62 21 -97 0
67 -20 -92 0
-67 20 -92 0
67 21 98 0
-67 21 -98 0
72 -20 -93 0
-72 20 -93 0
72 21 99 0
-72 21 -99 0
88 -124 0
-88 124 0
-89 -125 0
89 125 -126 0
126 -89 0
126 -125 0
-90 -126 0
90 126 -127 0
127 -90 0
127 -126 0
-91 -127 0
91 127 -128 0
128 -91 0
128 -127 0
-92 -128 0
92 128 -129 0
129 -92 0
129 -128 0
129 0
94 -130 0
-94 130 0
-95 -131 0
-96 -132 0
-97 -133 0
-98 -134 0
94 130 -131 0
131 -94 0
131 -130 0
95 131 -132 0
132 -95 0
132 -131 0
96 132 -133 0
133 -96 0
133 -132 0
97 133 -134 0
134 -97 0
134 -133 0
98 134 -135 0
135 -98 0
135 -134 0
135 0
48 -88 0
48 -94 0
53 -89 0
53 -95 0
58 -90 0
58 -96 0
63 -91 0
63 -97 0
68 -92 0
68 -98 0
73 -93 0
73 -99 0
49 -88 0
49 -94 0
54 -89 0
54 -95 0
59 -90 0
59 -96 0
64 -91 0
64 -97 0
69 -92 0
69 -98 0
74 -93 0
74 -99 0
-50 -88 0
-50 -94 0
-55 -89 0
-55 -95 0
-60 -90 0
-60 -96 0
-65 -91 0
-65 -97 0
-70 -92 0
-70 -98 0
-75 -93 0
-75 -99 0
32 33 0
-32 -33 0
46 -32 -100 0
-46 32 -100 0
46 33 106 0
-46 33 -106 0
51 -32 -101 0
-51 32 -101 0
51 33 107 0
-51 33 -107 0
56 -32 -102 0
-56 32 -102 0
56 33 108 0
-56 33 -108 0
61 -32 -103 0
-61 32 -103 0
61 33 109 0
-61 33 -109 0
66 -32 -104 0
-66 32 -104 0
66 33 110 0
-66 33 -110 0
71 -32 -105 0
-71 32 -105 0
71 33 111 0
-71 33 -111 0
100 -136 0
-100 136 0
-101 -137 0
101 137 -138 0
138 -101 0
138 -137 0
-102 -138 0
102 138 -139 0
139 -102 0
139 -138 0
-103 -139 0
103 139 -140 0
140 -103 0
140 -139 0
-104 -140 0
104 140 -141 0
141 -104 0
141 -140 0
141 0
106 -142 0
-106 142 0
-107 -143 0
-108 -144 0
-109 -145 0
-110 -146 0
106 142 -143 0
143 -106 0
143 -142 0
107 143 -144 0
144 -107 0
144 -143 0
108 144 -145 0
145 -108 0
145 -144 0
109 145 -146 0
146 -109 0
146 -145 0
110 146 -147 0
147 -110 0
147 -146 0
147 0
-47 -100 0
-47 -106 0
-52 -101 0
-52 -107 0
-57 -102 0
-57 -108 0
-62 -103 0
-62 -109 0
-67 -104 0
-67 -110 0
-72 -105 0
-72 -111 0
48 -100 0
48 -106 0
53 -101 0
53 -107 0
58 -102 0
58 -108 0
63 -103 0
63 -109 0
68 -104 0
68 -110 0
73 -105 0
73 -111 0
41 42 0
-41 -42 0
49 -41 -100 0
-49 41 -100 0
49 42 106 0
-49 42 -106 0
54 -41 -101 0
-54 41 -101 0
54 42 107 0
-54 42 -107 0
59 -41 -102 0
-59 41 -102 0
59 42 108 0
-59 42 -108 0
64 -41 -103 0
-64 41 -103 0
64 42 109 0
-64 42 -109 0
69 -41 -104 0
-69 41 -104 0
69 42 110 0
-69 42 -110 0
74 -41 -105 0
-74 41 -105 0
74 42 111 0
-74 42 -111 0
100 -136 0
-100 136 0
-101 -137 0
101 137 -138 0
138 -101 0
138 -137 0
-102 -138 0
102 138 -139 0
139 -102 0
139 -138 0
-103 -139 0
103 139 -140 0
140 -103 0
140 -139 0
-104 -140 0
104 140 -141 0
141 -104 0
141 -140 0
141 0
106 -142 0
-106 142 0
-107 -143 0
-108 -144 0
-109 -145 0
-110 -146 0
106 142 -143 0
143 -106 0
143 -142 0
107 143 -144 0
144 -107 0
144 -143 0
108 144 -145 0
145 -108 0
145 -144 0
109 145 -146 0
146 -109 0
146 -145 0
110 146 -147 0
147 -110 0
147 -146 0
147 0
-50 -100 0
-50 -106 0
-55 -101 0
-55 -107 0
-60 -102 0
-60 -108 0
-65 -103 0
-65 -109 0
-70 -104 0
-70 -110 0
-75 -105 0
-75 -111 0
